33D32945 STP File, STP Format Version 1.0

SECTION Comment
Name    "i160-044"
Creator "Cees Duin"
Remark  "Incidence graph"
END

SECTION Graph
Nodes 160
Edges 2544
E 1 3 307
E 1 7 297
E 1 9 202
E 1 13 201
E 1 18 202
E 1 21 196
E 1 26 201
E 1 33 198
E 1 35 196
E 1 40 202
E 1 44 205
E 1 47 201
E 1 49 206
E 1 50 195
E 1 54 190
E 1 60 200
E 1 63 207
E 1 71 196
E 1 77 204
E 1 79 203
E 1 80 198
E 1 82 198
E 1 86 199
E 1 91 202
E 1 92 205
E 1 93 194
E 1 100 202
E 1 103 202
E 1 104 199
E 1 120 198
E 1 124 203
E 1 130 198
E 1 132 199
E 1 134 198
E 1 136 199
E 1 138 200
E 1 152 196
E 1 153 199
E 1 159 197
E 2 6 312
E 2 11 200
E 2 16 197
E 2 34 203
E 2 44 203
E 2 49 185
E 2 50 183
E 2 54 201
E 2 65 195
E 2 67 205
E 2 71 205
E 2 82 204
E 2 83 197
E 2 85 204
E 2 112 199
E 2 114 205
E 2 123 202
E 2 125 206
E 2 127 192
E 2 132 199
E 2 140 200
E 2 143 198
E 2 144 196
E 2 145 204
E 2 150 200
E 2 156 197
E 3 12 198
E 3 28 207
E 3 30 195
E 3 33 202
E 3 47 198
E 3 50 202
E 3 56 197
E 3 61 200
E 3 62 211
E 3 67 203
E 3 73 193
E 3 83 194
E 3 88 206
E 3 89 202
E 3 107 209
E 3 112 202
E 3 120 194
E 3 121 201
E 3 123 192
E 3 127 199
E 3 133 188
E 3 139 207
E 3 153 203
E 3 158 193
E 4 8 202
E 4 9 199
E 4 13 199
E 4 15 203
E 4 21 195
E 4 23 195
E 4 38 200
E 4 40 197
E 4 44 200
E 4 46 200
E 4 49 191
E 4 61 208
E 4 64 203
E 4 77 201
E 4 78 206
E 4 84 196
E 4 86 197
E 4 107 195
E 4 120 198
E 4 122 199
E 4 127 197
E 4 133 199
E 4 137 202
E 4 142 204
E 4 146 203
E 4 151 204
E 4 158 195
E 4 160 202
E 5 6 288
E 5 9 197
E 5 16 198
E 5 21 196
E 5 33 199
E 5 40 194
E 5 47 205
E 5 50 204
E 5 52 199
E 5 53 207
E 5 55 198
E 5 59 203
E 5 67 195
E 5 70 202
E 5 76 202
E 5 82 199
E 5 85 209
E 5 92 196
E 5 94 198
E 5 96 197
E 5 97 188
E 5 105 203
E 5 108 208
E 5 111 194
E 5 114 200
E 5 129 199
E 5 139 196
E 5 152 188
E 6 11 198
E 6 15 200
E 6 18 195
E 6 24 192
E 6 27 193
E 6 34 201
E 6 40 193
E 6 43 190
E 6 44 193
E 6 47 195
E 6 49 199
E 6 56 201
E 6 57 201
E 6 62 194
E 6 65 207
E 6 73 198
E 6 74 201
E 6 77 200
E 6 83 196
E 6 84 196
E 6 86 207
E 6 87 195
E 6 93 188
E 6 94 196
E 6 95 198
E 6 96 201
E 6 98 202
E 6 99 200
E 6 100 196
E 6 104 205
E 6 108 204
E 6 110 202
E 6 115 191
E 6 117 205
E 6 122 203
E 6 125 199
E 6 130 208
E 6 131 201
E 6 132 202
E 6 137 189
E 6 140 193
E 6 143 194
E 6 147 197
E 6 151 193
E 6 159 202
E 7 21 203
E 7 29 198
E 7 32 202
E 7 35 202
E 7 36 203
E 7 37 195
E 7 39 193
E 7 42 202
E 7 53 197
E 7 63 195
E 7 66 193
E 7 69 213
E 7 70 204
E 7 72 193
E 7 77 207
E 7 78 196
E 7 89 203
E 7 90 200
E 7 94 195
E 7 96 200
E 7 97 201
E 7 102 202
E 7 106 201
E 7 110 200
E 7 112 196
E 7 124 202
E 7 143 191
E 7 149 206
E 8 9 100
E 8 10 104
E 8 15 108
E 8 16 104
E 8 21 96
E 8 23 103
E 8 32 100
E 8 41 95
E 8 45 99
E 8 53 99
E 8 54 97
E 8 57 96
E 8 61 103
E 8 68 104
E 8 73 101
E 8 74 100
E 8 85 108
E 8 87 92
E 8 88 105
E 8 90 96
E 8 98 97
E 8 101 108
E 8 103 101
E 8 106 103
E 8 111 104
E 8 114 97
E 8 115 108
E 8 117 97
E 8 130 102
E 8 131 100
E 8 132 99
E 8 133 100
E 8 136 100
E 8 146 103
E 8 159 99
E 8 160 100
E 9 18 97
E 9 20 94
E 9 28 100
E 9 39 105
E 9 51 104
E 9 55 100
E 9 57 96
E 9 64 94
E 9 71 90
E 9 78 99
E 9 87 98
E 9 92 101
E 9 98 95
E 9 103 101
E 9 108 99
E 9 132 101
E 9 158 90
E 9 160 98
E 10 11 90
E 10 12 102
E 10 14 106
E 10 17 101
E 10 29 89
E 10 31 100
E 10 32 93
E 10 37 102
E 10 38 104
E 10 44 95
E 10 55 95
E 10 57 85
E 10 59 104
E 10 62 97
E 10 64 104
E 10 70 89
E 10 74 106
E 10 79 95
E 10 82 99
E 10 83 102
E 10 84 97
E 10 86 105
E 10 87 94
E 10 88 98
E 10 89 101
E 10 92 90
E 10 98 105
E 10 109 95
E 10 110 95
E 10 112 97
E 10 117 91
E 10 121 102
E 10 127 95
E 10 128 101
E 10 131 98
E 10 140 102
E 10 143 95
E 10 153 104
E 10 155 107
E 10 159 102
E 11 16 87
E 11 26 93
E 11 32 104
E 11 51 102
E 11 62 95
E 11 68 100
E 11 70 97
E 11 79 97
E 11 92 109
E 11 104 104
E 11 108 101
E 11 120 94
E 11 122 105
E 11 124 104
E 11 125 100
E 11 131 93
E 11 134 103
E 11 140 98
E 11 152 110
E 11 154 104
E 11 158 104
E 12 15 97
E 12 22 103
E 12 32 93
E 12 38 96
E 12 39 106
E 12 48 101
E 12 65 98
E 12 66 103
E 12 68 97
E 12 72 98
E 12 73 102
E 12 77 95
E 12 79 106
E 12 81 99
E 12 84 106
E 12 86 101
E 12 87 95
E 12 93 103
E 12 97 100
E 12 109 97
E 12 110 94
E 12 117 105
E 12 129 95
E 12 131 99
E 12 134 110
E 12 146 96
E 12 154 100
E 12 155 106
E 13 14 96
E 13 17 98
E 13 18 103
E 13 20 100
E 13 28 100
E 13 29 96
E 13 38 104
E 13 42 110
E 13 48 99
E 13 55 105
E 13 78 94
E 13 84 108
E 13 90 91
E 13 92 98
E 13 93 95
E 13 94 100
E 13 97 101
E 13 111 101
E 13 117 112
E 13 126 107
E 13 132 95
E 13 134 108
E 13 139 95
E 13 150 100
E 13 154 98
E 14 15 110
E 14 16 101
E 14 17 97
E 14 18 96
E 14 24 104
E 14 26 93
E 14 28 103
E 14 33 103
E 14 39 92
E 14 43 103
E 14 55 97
E 14 59 104
E 14 60 99
E 14 64 101
E 14 69 101
E 14 76 96
E 14 80 104
E 14 81 97
E 14 110 90
E 14 115 100
E 14 122 100
E 14 126 100
E 14 127 94
E 14 128 100
E 14 130 94
E 14 133 99
E 14 137 102
E 14 149 105
E 14 151 92
E 14 156 102
E 15 16 105
E 15 21 95
E 15 28 95
E 15 31 107
E 15 33 102
E 15 35 103
E 15 38 109
E 15 46 89
E 15 52 103
E 15 57 99
E 15 60 94
E 15 61 101
E 15 71 98
E 15 76 102
E 15 85 105
E 15 101 105
E 15 111 109
E 15 121 99
E 15 125 95
E 15 130 104
E 15 132 91
E 15 136 96
E 15 147 101
E 15 150 101
E 15 154 103
E 15 155 99
E 16 17 95
E 16 18 105
E 16 19 104
E 16 37 103
E 16 49 98
E 16 59 83
E 16 61 89
E 16 69 97
E 16 72 92
E 16 85 99
E 16 92 93
E 16 96 100
E 16 98 92
E 16 106 102
E 16 111 104
E 16 114 105
E 16 116 102
E 16 122 102
E 16 127 96
E 16 129 96
E 16 130 98
E 16 137 98
E 16 138 91
E 16 139 101
E 16 140 100
E 16 144 104
E 16 147 108
E 16 152 111
E 16 156 98
E 16 157 93
E 16 160 104
E 17 26 98
E 17 28 109
E 17 32 97
E 17 33 104
E 17 35 104
E 17 38 103
E 17 44 102
E 17 45 96
E 17 49 100
E 17 51 108
E 17 52 99
E 17 60 103
E 17 67 100
E 17 74 99
E 17 77 90
E 17 90 99
E 17 95 98
E 17 100 102
E 17 102 105
E 17 107 95
E 17 108 100
E 17 110 104
E 17 116 105
E 17 119 98
E 17 122 95
E 17 131 106
E 17 134 103
E 17 148 99
E 17 150 95
E 17 153 101
E 17 154 104
E 17 157 90
E 17 158 98
E 18 20 105
E 18 26 98
E 18 29 108
E 18 34 96
E 18 37 94
E 18 40 111
E 18 44 94
E 18 48 91
E 18 56 99
E 18 57 101
E 18 60 107
E 18 64 102
E 18 68 101
E 18 82 90
E 18 85 105
E 18 87 97
E 18 91 97
E 18 92 97
E 18 93 101
E 18 95 104
E 18 100 93
E 18 107 99
E 18 113 98
E 18 119 98
E 18 120 102
E 18 122 100
E 18 123 99
E 18 129 103
E 18 135 98
E 18 136 91
E 18 140 99
E 18 141 99
E 18 147 95
E 18 148 104
E 18 155 101
E 18 156 105
E 18 157 101
E 18 158 99
E 18 160 98
E 19 25 105
E 19 33 95
E 19 40 107
E 19 42 107
E 19 56 88
E 19 57 90
E 19 58 86
E 19 63 108
E 19 66 96
E 19 74 90
E 19 76 98
E 19 86 107
E 19 94 103
E 19 96 97
E 19 99 93
E 19 100 110
E 19 103 95
E 19 105 97
E 19 106 103
E 19 110 89
E 19 111 99
E 19 115 99
E 19 117 105
E 19 122 104
E 19 124 104
E 19 126 93
E 19 127 98
E 19 135 107
E 19 145 95
E 19 146 98
E 19 152 106
E 19 153 96
E 19 158 104
E 19 159 98
E 19 160 106
E 20 35 103
E 20 51 97
E 20 52 107
E 20 61 91
E 20 63 92
E 20 64 96
E 20 65 109
E 20 73 98
E 20 80 105
E 20 96 95
E 20 108 114
E 20 110 96
E 20 111 93
E 20 112 98
E 20 115 97
E 20 117 96
E 20 119 104
E 20 136 103
E 20 139 107
E 20 147 97
E 20 157 97
E 20 158 105
E 21 22 112
E 21 30 96
E 21 39 97
E 21 42 98
E 21 43 104
E 21 49 103
E 21 50 97
E 21 54 95
E 21 56 94
E 21 57 101
E 21 62 89
E 21 65 103
E 21 67 91
E 21 76 97
E 21 82 102
E 21 90 105
E 21 91 105
E 21 92 107
E 21 94 103
E 21 95 100
E 21 103 96
E 21 118 90
E 21 122 103
E 21 123 103
E 21 126 105
E 21 129 110
E 21 132 103
E 21 135 95
E 21 141 89
E 21 157 98
E 21 159 102
E 22 39 103
E 22 40 102
E 22 44 97
E 22 46 99
E 22 48 107
E 22 49 107
E 22 52 103
E 22 53 94
E 22 54 99
E 22 55 102
E 22 76 104
E 22 77 95
E 22 78 107
E 22 83 97
E 22 88 94
E 22 89 96
E 22 91 106
E 22 92 102
E 22 105 101
E 22 108 98
E 22 109 102
E 22 119 96
E 22 129 108
E 22 134 102
E 22 136 95
E 22 142 96
E 22 155 97
E 22 156 96
E 23 24 96
E 23 27 100
E 23 31 104
E 23 32 103
E 23 34 100
E 23 36 106
E 23 38 104
E 23 39 99
E 23 46 85
E 23 49 95
E 23 50 96
E 23 57 103
E 23 61 105
E 23 73 102
E 23 76 100
E 23 78 101
E 23 79 105
E 23 84 95
E 23 100 90
E 23 114 96
E 23 116 102
E 23 121 96
E 23 128 105
E 23 129 103
E 23 142 98
E 23 144 103
E 23 145 97
E 23 147 98
E 23 148 88
E 24 26 104
E 24 29 108
E 24 33 104
E 24 40 99
E 24 43 92
E 24 44 104
E 24 45 100
E 24 52 107
E 24 55 98
E 24 56 105
E 24 59 104
E 24 62 98
E 24 63 102
E 24 66 94
E 24 85 104
E 24 88 103
E 24 92 91
E 24 94 94
E 24 97 118
E 24 101 101
E 24 102 98
E 24 109 99
E 24 112 109
E 24 115 97
E 24 116 103
E 24 120 101
E 24 123 104
E 24 129 100
E 24 135 91
E 24 141 98
E 24 143 103
E 24 147 91
E 24 155 102
E 25 27 106
E 25 28 113
E 25 36 91
E 25 40 97
E 25 43 100
E 25 45 100
E 25 46 111
E 25 47 87
E 25 51 104
E 25 53 89
E 25 56 100
E 25 58 111
E 25 59 101
E 25 60 96
E 25 68 95
E 25 73 104
E 25 75 110
E 25 83 102
E 25 85 93
E 25 93 101
E 25 95 109
E 25 102 104
E 25 105 92
E 25 107 101
E 25 108 100
E 25 111 103
E 25 115 95
E 25 119 98
E 25 120 107
E 25 122 96
E 25 124 94
E 25 127 107
E 25 129 96
E 25 132 100
E 25 134 101
E 25 135 99
E 25 141 102
E 25 149 102
E 25 154 98
E 25 156 104
E 26 30 93
E 26 32 100
E 26 34 91
E 26 35 107
E 26 39 97
E 26 40 100
E 26 42 105
E 26 47 105
E 26 49 98
E 26 57 89
E 26 63 90
E 26 64 102
E 26 72 101
E 26 75 98
E 26 77 99
E 26 78 94
E 26 81 98
E 26 82 95
E 26 106 104
E 26 107 101
E 26 114 105
E 26 124 104
E 26 125 101
E 26 127 104
E 26 137 100
E 26 138 91
E 26 139 98
E 26 141 108
E 26 144 100
E 26 150 104
E 26 151 97
E 26 154 102
E 26 158 107
E 27 31 101
E 27 34 98
E 27 37 100
E 27 38 102
E 27 52 99
E 27 69 93
E 27 81 100
E 27 83 91
E 27 84 100
E 27 86 90
E 27 90 97
E 27 92 88
E 27 94 94
E 27 96 94
E 27 97 102
E 27 107 96
E 27 114 97
E 27 115 108
E 27 120 100
E 27 122 94
E 27 133 94
E 27 134 103
E 27 135 106
E 27 139 100
E 27 144 99
E 27 151 99
E 27 156 103
E 27 158 99
E 27 159 98
E 28 30 106
E 28 53 99
E 28 63 97
E 28 66 93
E 28 78 94
E 28 82 95
E 28 85 97
E 28 88 95
E 28 89 105
E 28 94 102
E 28 101 107
E 28 104 99
E 28 105 101
E 28 108 84
E 28 110 110
E 28 115 98
E 28 121 105
E 28 123 106
E 28 125 90
E 28 130 100
E 28 132 97
E 28 136 101
E 28 143 98
E 28 144 101
E 28 146 108
E 28 152 110
E 28 156 92
E 28 158 107
E 28 159 103
E 29 33 107
E 29 50 105
E 29 52 104
E 29 66 98
E 29 68 97
E 29 77 99
E 29 80 99
E 29 82 99
E 29 83 99
E 29 85 93
E 29 91 104
E 29 103 101
E 29 106 104
E 29 107 104
E 29 116 95
E 29 118 101
E 29 119 101
E 29 125 95
E 29 130 101
E 29 132 108
E 29 136 107
E 29 137 99
E 29 138 93
E 29 143 105
E 29 153 103
E 29 155 99
E 30 33 103
E 30 52 98
E 30 56 100
E 30 64 103
E 30 67 99
E 30 72 98
E 30 85 108
E 30 89 104
E 30 103 95
E 30 111 104
E 30 114 103
E 30 117 103
E 30 125 93
E 30 130 94
E 30 131 106
E 30 141 98
E 30 150 100
E 30 152 94
E 30 158 106
E 31 39 92
E 31 48 102
E 31 59 101
E 31 64 101
E 31 75 105
E 31 82 100
E 31 83 98
E 31 96 98
E 31 99 100
E 31 103 94
E 31 105 102
E 31 108 101
E 31 110 94
E 31 113 98
E 31 115 101
E 31 119 103
E 31 120 104
E 31 126 91
E 31 129 101
E 31 130 98
E 31 133 99
E 31 136 92
E 31 140 92
E 31 142 113
E 31 145 96
E 31 156 97
E 32 40 93
E 32 41 98
E 32 44 94
E 32 51 99
E 32 53 105
E 32 54 106
E 32 55 97
E 32 64 106
E 32 81 103
E 32 86 96
E 32 91 98
E 32 93 96
E 32 103 102
E 32 115 101
E 32 116 105
E 32 123 94
E 32 128 97
E 32 130 100
E 32 135 97
E 32 136 99
E 32 138 89
E 32 143 98
E 32 150 105
E 32 152 99
E 32 154 110
E 32 157 101
E 32 160 96
E 33 35 91
E 33 38 97
E 33 47 97
E 33 63 101
E 33 70 106
E 33 72 94
E 33 76 104
E 33 82 103
E 33 84 111
E 33 85 97
E 33 90 100
E 33 97 100
E 33 99 101
E 33 104 90
E 33 107 97
E 33 108 104
E 33 115 102
E 33 126 95
E 33 128 97
E 33 131 107
E 33 135 85
E 33 140 94
E 33 145 97
E 33 148 107
E 33 149 104
E 33 151 105
E 33 154 104
E 33 155 95
E 33 156 109
E 34 35 93
E 34 46 100
E 34 51 96
E 34 56 92
E 34 57 97
E 34 59 103
E 34 67 108
E 34 72 103
E 34 85 99
E 34 88 105
E 34 99 97
E 34 102 87
E 34 107 109
E 34 115 97
E 34 127 105
E 34 130 104
E 34 132 101
E 34 135 95
E 34 141 98
E 34 143 101
E 34 147 96
E 34 152 95
E 34 153 97
E 34 158 105
E 35 43 102
E 35 52 94
E 35 61 91
E 35 62 100
E 35 64 104
E 35 65 96
E 35 76 100
E 35 77 102
E 35 84 101
E 35 90 105
E 35 91 99
E 35 95 109
E 35 107 90
E 35 109 99
E 35 110 92
E 35 111 101
E 35 112 94
E 35 115 103
E 35 122 101
E 35 125 92
E 35 127 94
E 35 129 101
E 35 134 102
E 35 141 100
E 35 149 96
E 35 158 98
E 35 159 105
E 35 160 94
E 36 38 109
E 36 39 94
E 36 48 99
E 36 50 105
E 36 56 106
E 36 58 100
E 36 64 90
E 36 65 100
E 36 66 98
E 36 69 103
E 36 73 101
E 36 84 97
E 36 85 103
E 36 86 101
E 36 91 101
E 36 96 100
E 36 105 107
E 36 109 98
E 36 116 101
E 36 128 103
E 36 135 92
E 36 139 92
E 36 140 98
E 36 143 108
E 36 156 94
E 37 40 99
E 37 48 100
E 37 49 92
E 37 59 98
E 37 62 109
E 37 68 105
E 37 88 98
E 37 90 101
E 37 103 100
E 37 108 100
E 37 112 99
E 37 125 101
E 37 128 95
E 37 130 97
E 37 132 94
E 37 133 96
E 37 143 100
E 37 147 90
E 37 149 103
E 37 153 100
E 37 154 98
E 37 159 96
E 38 45 105
E 38 53 104
E 38 57 95
E 38 65 95
E 38 66 101
E 38 67 97
E 38 70 95
E 38 71 104
E 38 74 106
E 38 80 96
E 38 82 98
E 38 83 101
E 38 98 99
E 38 106 105
E 38 108 102
E 38 115 101
E 38 118 94
E 38 119 89
E 38 121 96
E 38 124 99
E 38 127 106
E 38 128 102
E 38 130 98
E 38 132 96
E 38 139 97
E 38 143 96
E 38 144 110
E 38 146 104
E 38 149 94
E 38 150 99
E 38 151 92
E 38 152 94
E 39 43 96
E 39 47 97
E 39 48 99
E 39 64 99
E 39 65 101
E 39 68 89
E 39 75 100
E 39 80 109
E 39 90 98
E 39 91 102
E 39 93 99
E 39 98 101
E 39 101 98
E 39 102 96
E 39 121 97
E 39 124 96
E 39 125 101
E 39 128 99
E 39 131 115
E 39 136 99
E 39 139 97
E 39 141 95
E 39 142 92
E 39 144 101
E 40 48 95
E 40 54 105
E 40 55 104
E 40 56 92
E 40 65 104
E 40 68 103
E 40 75 94
E 40 76 107
E 40 84 102
E 40 87 105
E 40 92 100
E 40 96 100
E 40 97 95
E 40 98 100
E 40 112 95
E 40 116 104
E 40 117 106
E 40 118 92
E 40 121 95
E 40 131 97
E 40 137 112
E 40 138 91
E 40 144 92
E 40 151 100
E 40 154 91
E 40 156 105
E 41 45 101
E 41 48 100
E 41 63 97
E 41 65 107
E 41 66 95
E 41 95 100
E 41 100 105
E 41 108 98
E 41 114 95
E 41 121 93
E 41 125 101
E 41 126 103
E 41 128 99
E 41 130 100
E 41 133 103
E 41 135 95
E 41 141 95
E 41 145 96
E 41 150 99
E 41 151 91
E 42 46 102
E 42 48 103
E 42 67 96
E 42 77 99
E 42 79 98
E 42 87 105
E 42 96 96
E 42 104 93
E 42 111 97
E 42 116 100
E 42 117 95
E 42 121 100
E 42 128 94
E 42 129 100
E 42 132 105
E 42 138 110
E 42 139 98
E 42 140 95
E 42 145 111
E 42 149 107
E 42 151 93
E 42 160 95
E 43 45 93
E 43 48 98
E 43 58 99
E 43 61 96
E 43 65 106
E 43 69 95
E 43 73 104
E 43 76 97
E 43 80 98
E 43 83 91
E 43 85 102
E 43 91 96
E 43 93 101
E 43 102 104
E 43 105 93
E 43 113 107
E 43 116 98
E 43 118 92
E 43 127 99
E 43 133 102
E 43 135 99
E 43 140 102
E 43 146 99
E 43 153 105
E 43 154 105
E 43 155 101
E 43 157 94
E 44 50 97
E 44 61 97
E 44 62 92
E 44 66 98
E 44 69 99
E 44 70 99
E 44 74 105
E 44 76 99
E 44 81 103
E 44 85 97
E 44 92 98
E 44 96 102
E 44 101 99
E 44 102 98
E 44 116 104
E 44 125 104
E 44 135 95
E 44 138 92
E 44 142 91
E 44 150 90
E 44 157 96
E 45 59 106
E 45 63 107
E 45 90 104
E 45 98 101
E 45 106 98
E 45 109 102
E 45 112 93
E 45 114 93
E 45 115 95
E 45 116 90
E 45 134 94
E 45 154 98
E 46 50 102
E 46 52 99
E 46 63 101
E 46 66 94
E 46 78 101
E 46 79 93
E 46 83 106
E 46 84 109
E 46 86 105
E 46 87 109
E 46 98 95
E 46 104 92
E 46 108 92
E 46 110 106
E 46 116 102
E 46 120 98
E 46 122 104
E 46 124 90
E 46 132 95
E 46 137 98
E 46 139 107
E 46 147 99
E 46 158 95
E 46 160 103
E 47 51 106
E 47 66 97
E 47 67 109
E 47 71 97
E 47 72 102
E 47 73 93
E 47 80 97
E 47 84 96
E 47 95 94
E 47 106 100
E 47 112 105
E 47 116 97
E 47 117 95
E 47 126 95
E 47 130 96
E 47 131 91
E 47 133 100
E 47 135 103
E 47 141 100
E 47 148 103
E 47 159 92
E 48 55 98
E 48 61 102
E 48 62 101
E 48 76 89
E 48 78 94
E 48 82 111
E 48 83 100
E 48 84 94
E 48 90 95
E 48 94 105
E 48 98 99
E 48 101 96
E 48 115 97
E 48 120 103
E 48 153 103
E 48 158 104
E 48 160 104
E 49 51 90
E 49 59 99
E 49 65 105
E 49 66 95
E 49 67 98
E 49 73 96
E 49 77 102
E 49 78 97
E 49 81 108
E 49 84 107
E 49 87 93
E 49 97 109
E 49 98 101
E 49 99 98
E 49 103 100
E 49 107 90
E 49 111 103
E 49 115 101
E 49 132 98
E 49 141 103
E 49 146 100
E 49 148 103
E 49 150 93
E 50 51 97
E 50 55 110
E 50 62 96
E 50 63 99
E 50 69 106
E 50 77 101
E 50 78 101
E 50 79 99
E 50 81 97
E 50 83 106
E 50 84 101
E 50 87 107
E 50 92 97
E 50 103 107
E 50 105 91
E 50 109 104
E 50 114 95
E 50 117 98
E 50 118 93
E 50 127 103
E 50 128 105
E 50 130 104
E 50 139 94
E 50 151 93
E 50 157 105
E 50 158 104
E 50 159 106
E 51 58 99
E 51 60 110
E 51 68 99
E 51 74 102
E 51 82 97
E 51 89 105
E 51 90 97
E 51 94 97
E 51 97 103
E 51 107 95
E 51 117 98
E 51 122 98
E 51 125 93
E 51 127 93
E 51 128 105
E 51 140 107
E 51 154 105
E 51 159 99
E 52 54 96
E 52 57 93
E 52 58 101
E 52 67 102
E 52 72 99
E 52 82 116
E 52 83 94
E 52 87 91
E 52 103 105
E 52 108 101
E 52 109 98
E 52 116 104
E 52 119 99
E 52 120 97
E 52 127 99
E 52 133 98
E 52 135 93
E 52 143 95
E 52 153 97
E 52 156 96
E 52 158 96
E 52 159 98
E 53 54 106
E 53 56 105
E 53 59 98
E 53 65 114
E 53 74 105
E 53 78 83
E 53 81 107
E 53 84 104
E 53 87 93
E 53 90 99
E 53 93 100
E 53 98 99
E 53 102 102
E 53 104 96
E 53 105 108
E 53 109 99
E 53 117 100
E 53 129 99
E 53 135 98
E 53 136 100
E 53 142 99
E 53 150 95
E 53 156 94
E 53 157 101
E 54 55 100
E 54 58 96
E 54 59 95
E 54 61 102
E 54 62 95
E 54 66 101
E 54 67 105
E 54 68 103
E 54 78 100
E 54 83 103
E 54 88 95
E 54 91 104
E 54 94 106
E 54 98 100
E 54 103 98
E 54 105 88
E 54 119 97
E 54 120 95
E 54 132 101
E 54 139 93
E 54 140 96
E 54 144 94
E 54 145 104
E 54 149 105
E 54 152 102
E 54 153 102
E 54 157 98
E 55 60 101
E 55 61 93
E 55 68 95
E 55 73 96
E 55 78 97
E 55 80 100
E 55 81 103
E 55 86 99
E 55 89 97
E 55 94 98
E 55 95 103
E 55 106 94
E 55 116 94
E 55 122 101
E 55 123 101
E 55 130 99
E 55 134 92
E 55 136 99
E 55 145 106
E 55 149 95
E 55 158 92
E 55 160 98
E 56 60 99
E 56 67 96
E 56 70 107
E 56 75 105
E 56 80 93
E 56 82 97
E 56 85 95
E 56 86 97
E 56 87 96
E 56 94 110
E 56 101 94
E 56 102 100
E 56 103 95
E 56 110 108
E 56 111 99
E 56 120 94
E 56 121 107
E 56 124 97
E 56 126 89
E 56 127 106
E 56 131 105
E 56 150 95
E 56 157 97
E 56 160 110
E 57 64 113
E 57 65 97
E 57 74 110
E 57 76 99
E 57 83 97
E 57 88 98
E 57 97 112
E 57 99 105
E 57 100 92
E 57 106 98
E 57 110 99
E 57 111 96
E 57 120 96
E 57 126 103
E 57 128 99
E 57 130 102
E 57 132 94
E 57 134 96
E 57 142 93
E 57 144 94
E 58 61 99
E 58 65 105
E 58 70 99
E 58 78 103
E 58 81 102
E 58 90 98
E 58 92 109
E 58 95 108
E 58 96 105
E 58 97 95
E 58 99 90
E 58 100 98
E 58 103 104
E 58 105 95
E 58 106 102
E 58 110 101
E 58 114 97
E 58 123 95
E 58 135 102
E 58 149 97
E 58 150 96
E 58 153 97
E 58 160 103
E 59 60 95
E 59 61 102
E 59 64 98
E 59 89 99
E 59 90 100
E 59 92 104
E 59 93 100
E 59 101 101
E 59 102 98
E 59 110 99
E 59 111 104
E 59 118 92
E 59 132 101
E 59 133 103
E 59 137 103
E 59 138 107
E 59 152 101
E 60 63 104
E 60 65 104
E 60 66 91
E 60 70 103
E 60 73 97
E 60 78 98
E 60 88 99
E 60 90 86
E 60 95 92
E 60 97 95
E 60 104 95
E 60 123 104
E 60 138 103
E 60 140 101
E 60 142 105
E 60 145 104
E 60 150 95
E 60 156 103
E 60 158 104
E 60 160 94
E 61 62 96
E 61 69 102
E 61 70 95
E 61 71 106
E 61 73 97
E 61 76 106
E 61 83 105
E 61 85 102
E 61 95 100
E 61 97 93
E 61 108 106
E 61 109 100
E 61 110 97
E 61 111 101
E 61 114 102
E 61 120 102
E 61 125 95
E 61 132 89
E 61 135 92
E 61 136 108
E 61 137 101
E 61 139 98
E 61 141 91
E 61 142 101
E 61 145 102
E 61 148 101
E 61 155 104
E 61 159 95
E 62 71 94
E 62 74 89
E 62 87 108
E 62 91 98
E 62 95 109
E 62 98 97
E 62 100 98
E 62 103 107
E 62 111 100
E 62 115 95
E 62 126 102
E 62 130 103
E 62 137 93
E 62 138 102
E 62 142 95
E 62 146 95
E 62 151 102
E 62 153 100
E 62 155 98
E 62 156 109
E 62 157 92
E 63 69 108
E 63 73 93
E 63 80 98
E 63 83 105
E 63 90 100
E 63 93 102
E 63 101 102
E 63 105 100
E 63 108 94
E 63 110 103
E 63 112 97
E 63 114 96
E 63 118 108
E 63 127 98
E 63 138 97
E 63 143 96
E 63 147 98
E 63 155 102
E 63 160 105
E 64 70 99
E 64 77 86
E 64 78 108
E 64 84 98
E 64 85 104
E 64 90 101
E 64 94 96
E 64 99 106
E 64 110 105
E 64 116 95
E 64 121 107
E 64 124 96
E 64 127 99
E 64 129 93
E 64 136 91
E 64 137 97
E 64 151 90
E 65 76 100
E 65 88 97
E 65 90 96
E 65 99 96
E 65 100 101
E 65 103 101
E 65 106 101
E 65 111 99
E 65 115 101
E 65 129 84
E 65 130 105
E 65 133 94
E 65 142 105
E 65 143 90
E 65 145 100
E 65 153 104
E 65 158 102
E 66 68 107
E 66 72 93
E 66 74 103
E 66 79 103
E 66 80 100
E 66 82 99
E 66 85 96
E 66 94 101
E 66 95 95
E 66 98 98
E 66 107 93
E 66 113 97
E 66 117 102
E 66 118 103
E 66 129 92
E 66 138 95
E 66 139 99
E 66 141 99
E 66 145 101
E 66 146 104
E 66 154 105
E 67 68 98
E 67 71 97
E 67 79 93
E 67 84 106
E 67 90 102
E 67 94 109
E 67 97 88
E 67 100 103
E 67 102 90
E 67 103 107
E 67 110 102
E 67 112 94
E 67 119 99
E 67 125 98
E 67 132 108
E 67 145 92
E 67 148 104
E 67 153 100
E 68 69 99
E 68 79 95
E 68 86 105
E 68 92 109
E 68 101 96
E 68 107 103
E 68 122 106
E 68 125 103
E 68 126 104
E 68 129 105
E 68 143 98
E 68 150 92
E 68 154 105
E 69 70 102
E 69 84 104
E 69 89 95
E 69 91 97
E 69 92 98
E 69 95 104
E 69 99 95
E 69 101 104
E 69 108 103
E 69 114 100
E 69 115 99
E 69 121 96
E 69 122 102
E 69 131 101
E 69 135 99
E 69 145 94
E 69 152 97
E 69 154 96
E 69 155 97
E 69 158 87
E 70 77 98
E 70 79 107
E 70 80 102
E 70 81 96
E 70 85 93
E 70 87 88
E 70 91 98
E 70 93 96
E 70 96 95
E 70 107 99
E 70 109 99
E 70 118 95
E 70 132 96
E 70 133 105
E 70 148 98
E 70 153 106
E 70 154 104
E 70 158 98
E 71 74 98
E 71 75 99
E 71 80 108
E 71 86 103
E 71 88 97
E 71 90 100
E 71 100 99
E 71 110 97
E 71 114 106
E 71 120 114
E 71 128 95
E 71 136 109
E 71 137 98
E 71 138 98
E 71 152 98
E 71 157 102
E 72 82 98
E 72 85 95
E 72 87 96
E 72 97 99
E 72 101 100
E 72 104 107
E 72 105 98
E 72 122 89
E 72 126 111
E 72 134 95
E 72 135 102
E 72 143 102
E 72 149 106
E 72 152 103
E 72 160 97
E 73 78 105
E 73 79 102
E 73 83 104
E 73 91 97
E 73 95 100
E 73 96 104
E 73 101 97
E 73 103 105
E 73 108 103
E 73 132 101
E 73 139 105
E 73 143 105
E 73 145 101
E 73 147 98
E 73 157 98
E 73 160 91
E 74 76 104
E 74 79 102
E 74 81 98
E 74 87 103
E 74 91 107
E 74 95 92
E 74 97 104
E 74 100 101
E 74 108 96
E 74 109 100
E 74 112 112
E 74 116 94
E 74 118 96
E 74 119 106
E 74 123 103
E 74 127 99
E 74 128 95
E 74 130 102
E 74 136 92
E 74 149 99
E 74 152 94
E 74 157 103
E 75 79 102
E 75 95 96
E 75 103 94
E 75 114 106
E 75 118 92
E 75 123 97
E 75 129 98
E 75 132 95
E 75 149 100
E 75 152 96
E 75 156 95
E 75 159 102
E 76 86 104
E 76 89 94
E 76 90 96
E 76 91 99
E 76 92 96
E 76 96 96
E 76 101 104
E 76 123 98
E 76 125 94
E 76 129 96
E 76 131 96
E 76 132 98
E 76 142 100
E 76 143 107
E 76 147 101
E 76 155 102
E 77 79 112
E 77 81 93
E 77 82 107
E 77 91 104
E 77 97 100
E 77 102 91
E 77 109 110
E 77 112 108
E 77 116 103
E 77 118 108
E 77 121 100
E 77 128 96
E 77 130 92
E 77 135 108
E 77 148 91
E 78 79 90
E 78 81 99
E 78 83 106
E 78 84 101
E 78 97 101
E 78 100 99
E 78 108 101
E 78 109 95
E 78 113 98
E 78 137 107
E 78 139 101
E 78 140 100
E 78 155 86
E 78 159 111
E 78 160 97
E 79 90 99
E 79 96 95
E 79 98 98
E 79 99 104
E 79 117 103
E 79 127 100
E 79 134 100
E 79 141 98
E 79 152 107
E 79 154 99
E 79 160 104
E 80 99 104
E 80 133 98
E 80 138 99
E 80 139 108
E 80 143 103
E 80 144 102
E 80 145 91
E 80 160 98
E 81 84 102
E 81 92 105
E 81 105 97
E 81 110 109
E 81 116 101
E 81 132 103
E 81 136 107
E 81 137 94
E 81 140 100
E 81 141 103
E 81 142 95
E 81 159 91
E 81 160 99
E 82 92 91
E 82 93 95
E 82 105 105
E 82 114 91
E 82 117 112
E 82 120 102
E 82 122 104
E 82 127 105
E 82 131 95
E 82 138 95
E 82 140 94
E 82 142 94
E 82 151 89
E 82 154 103
E 82 158 103
E 82 160 93
E 83 85 95
E 83 90 107
E 83 100 104
E 83 102 101
E 83 106 98
E 83 107 101
E 83 108 100
E 83 112 112
E 83 113 96
E 83 117 108
E 83 119 102
E 83 122 105
E 83 125 90
E 83 128 95
E 83 133 97
E 83 136 108
E 83 139 92
E 83 140 86
E 83 145 103
E 83 146 104
E 83 147 97
E 83 151 98
E 83 153 91
E 83 158 94
E 83 159 102
E 84 85 95
E 84 96 93
E 84 105 97
E 84 110 94
E 84 111 98
E 84 115 99
E 84 124 103
E 84 125 102
E 84 128 107
E 84 132 110
E 84 142 95
E 84 147 93
E 84 154 95
E 84 157 96
E 85 89 104
E 85 91 104
E 85 92 106
E 85 93 97
E 85 100 93
E 85 107 97
E 85 128 100
E 85 130 94
E 85 136 100
E 85 139 99
E 85 141 101
E 85 156 103
E 86 88 100
E 86 89 106
E 86 93 92
E 86 96 100
E 86 97 103
E 86 98 103
E 86 107 102
E 86 109 104
E 86 111 102
E 86 115 99
E 86 117 99
E 86 122 102
E 86 123 103
E 86 126 91
E 86 131 101
E 86 133 96
E 86 141 103
E 86 142 102
E 86 145 97
E 86 153 103
E 86 156 103
E 87 89 103
E 87 90 99
E 87 92 108
E 87 93 99
E 87 105 92
E 87 108 104
E 87 111 88
E 87 122 98
E 87 127 105
E 87 128 99
E 87 133 108
E 87 137 101
E 87 139 94
E 87 140 96
E 87 157 104
E 88 89 96
E 88 91 103
E 88 93 102
E 88 100 110
E 88 113 96
E 88 116 112
E 88 124 97
E 88 125 96
E 88 126 110
E 88 129 99
E 88 130 104
E 88 144 99
E 88 146 102
E 88 152 98
E 88 158 97
E 89 92 109
E 89 94 90
E 89 103 96
E 89 119 101
E 89 121 92
E 89 122 102
E 89 124 95
E 89 127 96
E 89 134 88
E 89 136 97
E 89 154 99
E 89 158 100
E 90 91 96
E 90 99 104
E 90 103 107
E 90 106 97
E 90 124 107
E 90 127 96
E 90 129 95
E 90 131 109
E 90 133 97
E 90 139 102
E 90 144 96
E 90 150 92
E 90 152 104
E 91 96 98
E 91 98 95
E 91 110 102
E 91 111 94
E 91 116 102
E 91 117 100
E 91 125 98
E 91 127 94
E 91 129 104
E 91 145 93
E 91 149 103
E 92 95 108
E 92 101 107
E 92 109 108
E 92 111 91
E 92 112 96
E 92 121 95
E 92 124 105
E 92 125 107
E 92 128 99
E 92 136 102
E 92 139 91
E 92 145 88
E 92 150 96
E 92 153 102
E 92 157 95
E 92 158 102
E 93 94 99
E 93 97 96
E 93 99 107
E 93 105 99
E 93 106 96
E 93 120 95
E 93 121 97
E 93 122 96
E 93 128 101
E 93 130 101
E 93 135 96
E 93 143 98
E 93 146 100
E 93 152 102
E 93 153 110
E 93 155 106
E 93 158 103
E 94 100 102
E 94 122 98
E 94 126 106
E 94 134 106
E 94 135 105
E 94 138 98
E 94 140 106
E 94 141 93
E 94 144 102
E 94 148 97
E 94 154 105
E 94 160 94
E 95 98 102
E 95 100 105
E 95 106 95
E 95 110 103
E 95 113 105
E 95 116 96
E 95 119 87
E 95 130 99
E 95 131 103
E 95 132 103
E 95 150 113
E 95 151 103
E 95 153 94
E 95 155 100
E 96 100 99
E 96 113 101
E 96 119 96
E 96 125 105
E 96 133 95
E 96 140 97
E 96 144 97
E 96 153 98
E 96 155 106
E 96 157 105
E 96 158 101
E 96 159 97
E 97 98 102
E 97 119 96
E 97 123 104
E 97 130 100
E 97 131 98
E 97 138 99
E 97 152 98
E 98 100 101
E 98 101 103
E 98 117 98
E 98 120 89
E 98 125 96
E 98 134 101
E 98 137 98
E 98 144 97
E 98 147 100
E 98 150 104
E 99 110 98
E 99 144 103
E 99 146 99
E 99 150 106
E 100 101 100
E 100 108 93
E 100 109 102
E 100 110 108
E 100 111 94
E 100 131 95
E 100 137 96
E 100 148 104
E 100 156 106
E 101 105 98
E 101 111 111
E 101 112 93
E 101 113 101
E 101 114 91
E 101 118 96
E 101 125 102
E 101 129 101
E 101 136 92
E 101 143 115
E 101 145 107
E 101 146 108
E 101 147 94
E 101 150 94
E 101 151 97
E 102 105 105
E 102 107 99
E 102 115 96
E 102 121 102
E 102 122 101
E 102 136 107
E 102 139 99
E 102 148 96
E 103 105 102
E 103 106 98
E 103 131 95
E 103 138 95
E 103 142 105
E 103 148 102
E 103 150 95
E 103 158 105
E 103 159 100
E 104 108 96
E 104 119 92
E 104 122 97
E 104 132 107
E 104 134 95
E 104 144 94
E 104 148 107
E 104 155 100
E 104 159 92
E 105 108 100
E 105 119 106
E 105 120 93
E 105 129 104
E 105 130 97
E 105 143 94
E 106 107 97
E 106 116 89
E 106 117 97
E 106 124 96
E 106 133 107
E 106 136 95
E 106 141 111
E 106 146 99
E 106 147 97
E 106 151 98
E 106 160 91
E 107 118 97
E 107 119 108
E 107 123 92
E 107 125 84
E 107 132 103
E 107 136 92
E 107 154 96
E 107 160 94
E 108 116 103
E 108 127 99
E 108 131 93
E 108 135 90
E 108 141 107
E 108 143 97
E 108 150 112
E 108 151 102
E 108 153 95
E 108 154 97
E 109 111 98
E 109 114 98
E 109 116 93
E 109 124 100
E 109 125 101
E 109 134 100
E 109 144 100
E 109 149 97
E 109 155 89
E 109 159 110
E 110 117 94
E 110 127 90
E 110 133 106
E 110 148 92
E 110 149 91
E 110 151 104
E 110 158 93
E 111 112 102
E 111 120 102
E 111 124 96
E 111 126 92
E 111 130 106
E 111 143 104
E 111 146 97
E 111 150 87
E 112 115 94
E 112 116 113
E 112 119 101
E 112 123 96
E 112 130 92
E 112 132 103
E 112 134 98
E 112 138 96
E 112 142 87
E 112 149 94
E 112 151 94
E 112 153 92
E 112 156 103
E 112 158 94
E 112 160 97
E 113 115 105
E 113 116 105
E 113 118 99
E 113 128 94
E 113 131 93
E 113 134 100
E 113 135 109
E 113 154 108
E 113 155 100
E 113 157 98
E 113 160 87
E 114 116 95
E 114 119 101
E 114 120 107
E 114 130 105
E 114 151 98
E 114 156 97
E 114 160 101
E 115 116 102
E 115 128 103
E 115 133 95
E 115 145 96
E 115 148 106
E 116 119 92
E 116 123 96
E 116 124 102
E 116 125 97
E 116 128 101
E 116 137 98
E 116 140 93
E 116 141 96
E 116 148 105
E 116 154 94
E 116 160 103
E 117 125 95
E 117 129 94
E 117 132 96
E 117 138 97
E 117 139 94
E 117 141 95
E 117 143 106
E 117 144 100
E 117 147 93
E 117 149 99
E 117 154 98
E 117 159 104
E 118 121 96
E 118 125 99
E 118 131 96
E 118 138 98
E 118 140 99
E 118 143 93
E 118 147 99
E 118 151 102
E 118 152 99
E 118 155 87
E 118 157 96
E 118 159 108
E 118 160 104
E 119 123 90
E 119 124 100
E 119 131 101
E 119 137 94
E 119 140 95
E 119 153 100
E 120 123 105
E 120 124 90
E 120 126 91
E 120 140 97
E 120 142 95
E 121 126 98
E 121 128 97
E 121 130 102
E 121 131 90
E 121 134 99
E 121 137 99
E 121 143 93
E 121 150 101
E 121 152 91
E 121 155 92
E 121 160 96
E 122 125 88
E 122 126 106
E 122 133 103
E 122 148 101
E 122 150 103
E 122 152 102
E 122 158 102
E 122 159 88
E 122 160 95
E 123 131 100
E 123 132 101
E 123 135 100
E 123 136 100
E 123 137 90
E 123 138 98
E 123 139 97
E 123 143 101
E 123 145 98
E 123 148 99
E 123 160 102
E 124 133 101
E 124 135 102
E 124 138 104
E 124 149 93
E 124 150 105
E 124 156 95
E 124 157 94
E 124 158 101
E 125 126 105
E 125 127 101
E 125 133 98
E 125 135 103
E 125 136 98
E 125 138 99
E 125 145 101
E 125 148 101
E 125 150 100
E 125 152 96
E 126 130 105
E 126 144 98
E 126 148 94
E 126 156 103
E 126 159 94
E 126 160 99
E 127 128 102
E 127 134 109
E 127 137 99
E 127 140 103
E 127 143 100
E 127 146 101
E 127 150 97
E 127 151 115
E 128 129 98
E 128 133 95
E 128 139 101
E 128 140 106
E 128 141 102
E 128 145 95
E 128 155 98
E 128 158 98
E 129 130 103
E 129 136 94
E 129 139 100
E 129 147 108
E 129 153 104
E 129 154 99
E 130 132 106
E 130 138 99
E 130 145 101
E 130 146 95
E 130 147 107
E 130 150 109
E 130 151 101
E 130 152 102
E 131 134 109
E 131 136 101
E 131 139 92
E 131 143 95
E 131 152 95
E 131 153 101
E 131 154 98
E 131 159 102
E 132 133 101
E 132 152 90
E 132 154 103
E 132 160 103
E 133 135 97
E 133 138 102
E 133 141 100
E 133 144 90
E 133 159 94
E 134 144 94
E 134 154 90
E 134 157 90
E 135 138 97
E 135 143 106
E 135 148 105
E 135 153 105
E 135 154 94
E 136 151 99
E 136 159 105
E 136 160 94
E 137 145 101
E 137 150 101
E 137 156 108
E 138 140 95
E 138 148 106
E 138 153 106
E 140 142 98
E 140 160 99
E 141 149 102
E 141 160 95
E 142 144 105
E 142 148 96
E 142 149 100
E 142 151 101
E 142 154 104
E 143 154 98
E 143 155 103
E 143 157 100
E 144 148 95
E 144 149 101
E 144 154 107
E 144 159 101
E 144 160 106
E 145 149 102
E 145 158 93
E 146 151 97
E 146 154 93
E 147 148 97
E 147 149 104
E 147 150 99
E 147 155 104
E 149 151 96
E 149 155 95
E 150 153 98
E 150 158 96
E 151 152 102
E 152 154 103
E 152 159 108
E 152 160 99
E 153 155 103
E 153 160 100
E 155 157 101
E 156 159 94
E 156 160 102
E 157 158 103
E 158 160 94
END

SECTION Terminals
Terminals 7
T 1
T 2
T 3
T 4
T 5
T 6
T 7
END

EOF
